regression_itp/log-2023-02-20-10-22-36/dec-far1.smt2.out
unsat
((and (<= 0 x2) (<= 0 x3)))
((<= 0 (+ x1 x2)))
((<= 0 (+ x1 x3)))
((<= 0 (* -1 x1)))
